(set-option :produce-models true)
(set-logic QF_LRA)
(set-info :notes | Strip-packing problem.|)
(declare-fun x0 () Real)
(declare-fun y0 () Real)
(declare-fun x1 () Real)
(declare-fun y1 () Real)
(declare-fun x2 () Real)
(declare-fun y2 () Real)
(declare-fun x3 () Real)
(declare-fun y3 () Real)
(declare-fun x4 () Real)
(declare-fun y4 () Real)
(declare-fun x5 () Real)
(declare-fun y5 () Real)
(declare-fun x6 () Real)
(declare-fun y6 () Real)
(declare-fun x7 () Real)
(declare-fun y7 () Real)
(declare-fun x8 () Real)
(declare-fun y8 () Real)
(declare-fun z () Real)
(declare-fun c () Real)
(assert (and (= c z) (and (>= x0 0) 
(and (>= y0 0) 
(and (>= x1 0) 
(and (>= y1 0) 
(and (>= x2 0) 
(and (>= y2 0) 
(and (>= x3 0) 
(and (>= y3 0) 
(and (>= x4 0) 
(and (>= y4 0) 
(and (>= x5 0) 
(and (>= y5 0) 
(and (>= x6 0) 
(and (>= y6 0) 
(and (>= x7 0) 
(and (>= y7 0) 
(and (>= x8 0) 
(and (>= y8 0) 
(and (>= z 0) 
(and (>= c 0) 
(and (<= (+ x0 0.7983690658) z) 
(and (<= 0.9292122802 y0) 
(and (<= y0 1.5) 
(and (<= x0 (- 3.1402816075 0.7983690658)) 
(and (>= x0 0) 
(and (<= (+ x1 0.7106350542) z) 
(and (<= 0.8517402068 y1) 
(and (<= y1 1.5) 
(and (<= x1 (- 3.1402816075 0.7106350542)) 
(and (>= x1 0) 
(and (<= (+ x2 0.7389214254) z) 
(and (<= 0.7395628064 y2) 
(and (<= y2 1.5) 
(and (<= x2 (- 3.1402816075 0.7389214254)) 
(and (>= x2 0) 
(and (<= (+ x3 0.6726329851) z) 
(and (<= 0.7320891557 y3) 
(and (<= y3 1.5) 
(and (<= x3 (- 3.1402816075 0.6726329851)) 
(and (>= x3 0) 
(and (<= (+ x4 0.8923560621) z) 
(and (<= 0.6745002575 y4) 
(and (<= y4 1.5) 
(and (<= x4 (- 3.1402816075 0.8923560621)) 
(and (>= x4 0) 
(and (<= (+ x5 0.4795338428) z) 
(and (<= 0.4885082975 y5) 
(and (<= y5 1.5) 
(and (<= x5 (- 3.1402816075 0.4795338428)) 
(and (>= x5 0) 
(and (<= (+ x6 0.6889349295) z) 
(and (<= 0.4307599841 y6) 
(and (<= y6 1.5) 
(and (<= x6 (- 3.1402816075 0.6889349295)) 
(and (>= x6 0) 
(and (<= (+ x7 0.3228741732) z) 
(and (<= 0.2150886439 y7) 
(and (<= y7 1.5) 
(and (<= x7 (- 3.1402816075 0.3228741732)) 
(and (>= x7 0) 
(and (<= (+ x8 0.6064653371) z) 
(and (<= 0.0031830629 y8) 
(and (<= y8 1.5) 
(and (<= x8 (- 3.1402816075 0.6064653371)) 
(and (>= x8 0) 
(and (<= c 3.1402816075) 
(and (or (<= (+ x0 0.7983690658) x1) (or (<= (+ x1 0.7106350542) x0) (or (>= (- y0 0.9292122802) y1) (or (>= (- y1 0.8517402068) y0))))) 
(and (or (<= (+ x0 0.7983690658) x2) (or (<= (+ x2 0.7389214254) x0) (or (>= (- y0 0.9292122802) y2) (or (>= (- y2 0.7395628064) y0))))) 
(and (or (<= (+ x0 0.7983690658) x3) (or (<= (+ x3 0.6726329851) x0) (or (>= (- y0 0.9292122802) y3) (or (>= (- y3 0.7320891557) y0))))) 
(and (or (<= (+ x0 0.7983690658) x4) (or (<= (+ x4 0.8923560621) x0) (or (>= (- y0 0.9292122802) y4) (or (>= (- y4 0.6745002575) y0))))) 
(and (or (<= (+ x0 0.7983690658) x5) (or (<= (+ x5 0.4795338428) x0) (or (>= (- y0 0.9292122802) y5) (or (>= (- y5 0.4885082975) y0))))) 
(and (or (<= (+ x0 0.7983690658) x6) (or (<= (+ x6 0.6889349295) x0) (or (>= (- y0 0.9292122802) y6) (or (>= (- y6 0.4307599841) y0))))) 
(and (or (<= (+ x0 0.7983690658) x7) (or (<= (+ x7 0.3228741732) x0) (or (>= (- y0 0.9292122802) y7) (or (>= (- y7 0.2150886439) y0))))) 
(and (or (<= (+ x0 0.7983690658) x8) (or (<= (+ x8 0.6064653371) x0) (or (>= (- y0 0.9292122802) y8) (or (>= (- y8 0.0031830629) y0))))) 
(and (or (<= (+ x1 0.7106350542) x2) (or (<= (+ x2 0.7389214254) x1) (or (>= (- y1 0.8517402068) y2) (or (>= (- y2 0.7395628064) y1))))) 
(and (or (<= (+ x1 0.7106350542) x3) (or (<= (+ x3 0.6726329851) x1) (or (>= (- y1 0.8517402068) y3) (or (>= (- y3 0.7320891557) y1))))) 
(and (or (<= (+ x1 0.7106350542) x4) (or (<= (+ x4 0.8923560621) x1) (or (>= (- y1 0.8517402068) y4) (or (>= (- y4 0.6745002575) y1))))) 
(and (or (<= (+ x1 0.7106350542) x5) (or (<= (+ x5 0.4795338428) x1) (or (>= (- y1 0.8517402068) y5) (or (>= (- y5 0.4885082975) y1))))) 
(and (or (<= (+ x1 0.7106350542) x6) (or (<= (+ x6 0.6889349295) x1) (or (>= (- y1 0.8517402068) y6) (or (>= (- y6 0.4307599841) y1))))) 
(and (or (<= (+ x1 0.7106350542) x7) (or (<= (+ x7 0.3228741732) x1) (or (>= (- y1 0.8517402068) y7) (or (>= (- y7 0.2150886439) y1))))) 
(and (or (<= (+ x1 0.7106350542) x8) (or (<= (+ x8 0.6064653371) x1) (or (>= (- y1 0.8517402068) y8) (or (>= (- y8 0.0031830629) y1))))) 
(and (or (<= (+ x2 0.7389214254) x3) (or (<= (+ x3 0.6726329851) x2) (or (>= (- y2 0.7395628064) y3) (or (>= (- y3 0.7320891557) y2))))) 
(and (or (<= (+ x2 0.7389214254) x4) (or (<= (+ x4 0.8923560621) x2) (or (>= (- y2 0.7395628064) y4) (or (>= (- y4 0.6745002575) y2))))) 
(and (or (<= (+ x2 0.7389214254) x5) (or (<= (+ x5 0.4795338428) x2) (or (>= (- y2 0.7395628064) y5) (or (>= (- y5 0.4885082975) y2))))) 
(and (or (<= (+ x2 0.7389214254) x6) (or (<= (+ x6 0.6889349295) x2) (or (>= (- y2 0.7395628064) y6) (or (>= (- y6 0.4307599841) y2))))) 
(and (or (<= (+ x2 0.7389214254) x7) (or (<= (+ x7 0.3228741732) x2) (or (>= (- y2 0.7395628064) y7) (or (>= (- y7 0.2150886439) y2))))) 
(and (or (<= (+ x2 0.7389214254) x8) (or (<= (+ x8 0.6064653371) x2) (or (>= (- y2 0.7395628064) y8) (or (>= (- y8 0.0031830629) y2))))) 
(and (or (<= (+ x3 0.6726329851) x4) (or (<= (+ x4 0.8923560621) x3) (or (>= (- y3 0.7320891557) y4) (or (>= (- y4 0.6745002575) y3))))) 
(and (or (<= (+ x3 0.6726329851) x5) (or (<= (+ x5 0.4795338428) x3) (or (>= (- y3 0.7320891557) y5) (or (>= (- y5 0.4885082975) y3))))) 
(and (or (<= (+ x3 0.6726329851) x6) (or (<= (+ x6 0.6889349295) x3) (or (>= (- y3 0.7320891557) y6) (or (>= (- y6 0.4307599841) y3))))) 
(and (or (<= (+ x3 0.6726329851) x7) (or (<= (+ x7 0.3228741732) x3) (or (>= (- y3 0.7320891557) y7) (or (>= (- y7 0.2150886439) y3))))) 
(and (or (<= (+ x3 0.6726329851) x8) (or (<= (+ x8 0.6064653371) x3) (or (>= (- y3 0.7320891557) y8) (or (>= (- y8 0.0031830629) y3))))) 
(and (or (<= (+ x4 0.8923560621) x5) (or (<= (+ x5 0.4795338428) x4) (or (>= (- y4 0.6745002575) y5) (or (>= (- y5 0.4885082975) y4))))) 
(and (or (<= (+ x4 0.8923560621) x6) (or (<= (+ x6 0.6889349295) x4) (or (>= (- y4 0.6745002575) y6) (or (>= (- y6 0.4307599841) y4))))) 
(and (or (<= (+ x4 0.8923560621) x7) (or (<= (+ x7 0.3228741732) x4) (or (>= (- y4 0.6745002575) y7) (or (>= (- y7 0.2150886439) y4))))) 
(and (or (<= (+ x4 0.8923560621) x8) (or (<= (+ x8 0.6064653371) x4) (or (>= (- y4 0.6745002575) y8) (or (>= (- y8 0.0031830629) y4))))) 
(and (or (<= (+ x5 0.4795338428) x6) (or (<= (+ x6 0.6889349295) x5) (or (>= (- y5 0.4885082975) y6) (or (>= (- y6 0.4307599841) y5))))) 
(and (or (<= (+ x5 0.4795338428) x7) (or (<= (+ x7 0.3228741732) x5) (or (>= (- y5 0.4885082975) y7) (or (>= (- y7 0.2150886439) y5))))) 
(and (or (<= (+ x5 0.4795338428) x8) (or (<= (+ x8 0.6064653371) x5) (or (>= (- y5 0.4885082975) y8) (or (>= (- y8 0.0031830629) y5))))) 
(and (or (<= (+ x6 0.6889349295) x7) (or (<= (+ x7 0.3228741732) x6) (or (>= (- y6 0.4307599841) y7) (or (>= (- y7 0.2150886439) y6))))) 
(and (or (<= (+ x6 0.6889349295) x8) (or (<= (+ x8 0.6064653371) x6) (or (>= (- y6 0.4307599841) y8) (or (>= (- y8 0.0031830629) y6))))) 
(and (or (<= (+ x7 0.3228741732) x8) (or (<= (+ x8 0.6064653371) x7) (or (>= (- y7 0.2150886439) y8) (or (>= (- y8 0.0031830629) y7))))) ))))))))))))))))))))))))))))))))))))))))))))))))))))))))))))))))))))))))))))))))))))))))))))))))))))))))
(minimize c)
(check-sat)
(get-objectives)
(exit)
